(set-info :source |printed by MathSAT|)
(declare-fun |main::local_14@3| () (_ BitVec 32))
(declare-fun |main::local_18@2| () (_ BitVec 32))
(declare-fun |main::local_14@4| () (_ BitVec 32))
(declare-fun |main::local_14@5| () (_ BitVec 32))
(declare-fun |main::local_14@6| () (_ BitVec 32))
(declare-fun |main::local_14@7| () (_ BitVec 32))
(declare-fun |main::local_14@8| () (_ BitVec 32))
(declare-fun |main::local_14@9| () (_ BitVec 32))
(assert (let ((.def_274 (bvxor |main::local_18@2| |main::local_14@9|)))(let ((.def_276 (bvand (_ bv1 32) .def_274)))(let ((.def_277 (= .def_276 (_ bv0 32))))(let ((.def_278 (not .def_277)))(let ((.def_270 (bvult |main::local_14@9| (_ bv99 32))))(let ((.def_272 (not .def_270)))(let ((.def_267 (bvadd (_ bv4294967292 32) |main::local_14@8|)))(let ((.def_268 (= |main::local_14@9| .def_267)))(let ((.def_261 (bvadd (_ bv4294967294 32) |main::local_14@7|)))(let ((.def_262 (= |main::local_14@8| .def_261)))(let ((.def_254 (bvadd (_ bv4294967294 32) |main::local_14@5|)))(let ((.def_255 (= |main::local_14@6| .def_254)))(let ((.def_13 (bvult |main::local_14@3| (_ bv99 32))))(let ((.def_11 (= |main::local_14@3| (_ bv0 32))))(let ((.def_246 (and .def_11 .def_13)))(let ((.def_51 (bvand (_ bv1 32) |main::local_18@2|)))(let ((.def_52 (= .def_51 (_ bv0 32))))(let ((.def_53 (not .def_52)))(let ((.def_247 (and .def_53 .def_246)))(let ((.def_89 (bvadd (_ bv2 32) |main::local_14@3|)))(let ((.def_91 (= .def_89 |main::local_14@4|)))(let ((.def_248 (and .def_91 .def_247)))(let ((.def_249 (and .def_53 .def_248)))(let ((.def_102 (bvadd (_ bv4294967294 32) |main::local_14@4|)))(let ((.def_104 (= .def_102 |main::local_14@5|)))(let ((.def_250 (and .def_104 .def_249)))(let ((.def_251 (and .def_53 .def_250)))(let ((.def_252 (and .def_53 .def_251)))(let ((.def_256 (and .def_252 .def_255)))(let ((.def_257 (and .def_53 .def_256)))(let ((.def_129 (bvadd (_ bv4 32) |main::local_14@6|)))(let ((.def_130 (= |main::local_14@7| .def_129)))(let ((.def_258 (and .def_130 .def_257)))(let ((.def_259 (and .def_53 .def_258)))(let ((.def_263 (and .def_259 .def_262)))(let ((.def_264 (and .def_53 .def_263)))(let ((.def_269 (and .def_264 .def_268)))(let ((.def_273 (and .def_269 .def_272)))(let ((.def_280 (and .def_273 .def_278))).def_280))))))))))))))))))))))))))))))))))))))))